cpu-bind=MASK - n2lcn0125, task  0  0 [3872875]: mask |--------|--------||--------|--------||--------|--------||--------|--------||||--------|--------||--------|--------||BBBB----|--------||--------|--------|  set
started at Fri Mar 17 08:50:08 CET 2023
Timecheck 10000965.919419708
Set parameter TokenServer to value "license3.uni-paderborn.de"
Warning: Gurobi version mismatch between Python 10.0.1 and C library 10.0.0
Timecheck 10000965.934790729
Timecheck 10000965.93499492
Timecheck 10000965.93503658
Timecheck 10000965.93505703


####################################################################################################
Solve scenario sce_4_26_2 with free vessel operation using the arc flow model
Vessels cannot omit ports, Demands cannot be rejected
####################################################################################################
Data preprocessing, load /upb/departments/pc2/groups/hpc-prf-winf4/dwetzel/SILSRP/inst_final/sce_4_26_2
and create additional sets and parameters
	|- Read vessel information, number of vessels:	11
	|- Read node information, number of nodes:		610
	|- Read arc information
		|- Number of sailing arcs:			4126
		|- Number of transshipment arcs:	803
	|- Read container information
		|- Number of demands:		2847
		|- Number of empties (+/-):	309/278
	|- Create additional sets and parameters

Data preprocessing took 	00:00:02.593
####################################################################################################
Create linear model
Set parameter Threads to value 4
	|- Create variables, took	00:00:04.919
	|- Create objective, took	00:00:03.144
	|- Create constraints, took	00:00:11.493
	|- Load heuristic start

Creating model took	00:00:19.618
####################################################################################################
Fix start solution

Set parameter TimeLimit to value 8.4954005003660917e+04
Gurobi Optimizer version 10.0.0 build v10.0.0rc2 (linux64)

CPU model: AMD EPYC 7763 64-Core Processor, instruction set [SSE2|AVX|AVX2]
Thread count: 128 physical cores, 128 logical processors, using up to 4 threads

Optimize a model with 195340 rows, 1148917 columns and 3659865 nonzeros
Model fingerprint: 0x9e30e255
Variable types: 1100086 continuous, 48831 integer (48831 binary)
Coefficient statistics:
  Matrix range     [1e+00, 2e+06]
  Objective range  [1e+00, 1e+00]
  Bounds range     [1e+00, 5e+02]
  RHS range        [1e+00, 8e+08]
Presolve removed 161213 rows and 1065816 columns
Presolve time: 3.16s
Presolved: 34127 rows, 83101 columns, 242212 nonzeros
Variable types: 80443 continuous, 2658 integer (2654 binary)
Deterministic concurrent LP optimizer: primal and dual simplex
Showing first log only...

Concurrent spin time: 0.08s

Solved with dual simplex

Root relaxation: objective 3.375659e+07, 9606 iterations, 0.47 seconds (0.38 work units)

    Nodes    |    Current Node    |     Objective Bounds      |     Work
 Expl Unexpl |  Obj  Depth IntInf | Incumbent    BestBd   Gap | It/Node Time

*    0     0               0    3.375659e+07 3.3757e+07  0.00%     -    4s

Explored 1 nodes (9606 simplex iterations) in 4.22 seconds (3.35 work units)
Thread count was 4 (of 128 available processors)

Solution count 1: 3.37566e+07 

Optimal solution found (tolerance 1.00e-04)
Best objective 3.375659200000e+07, best bound 3.375659200000e+07, gap 0.0000%

Fixing start solution took	00:00:24.233
####################################################################################################
####################################################################################################
Solve optimization model

Set parameter TimeLimit to value 8.4949720272421837e+04
Gurobi Optimizer version 10.0.0 build v10.0.0rc2 (linux64)

CPU model: AMD EPYC 7763 64-Core Processor, instruction set [SSE2|AVX|AVX2]
Thread count: 128 physical cores, 128 logical processors, using up to 4 threads

Optimize a model with 194731 rows, 1148917 columns and 3659256 nonzeros
Model fingerprint: 0x7d1fa332
Variable types: 1100086 continuous, 48831 integer (48831 binary)
Coefficient statistics:
  Matrix range     [1e+00, 2e+06]
  Objective range  [1e+00, 1e+00]
  Bounds range     [1e+00, 5e+02]
  RHS range        [1e+00, 8e+08]

Loaded MIP start from previous solve with objective 3.37566e+07

Presolve removed 12360 rows and 19024 columns (presolve time = 5s) ...
Presolve removed 13097 rows and 23631 columns (presolve time = 10s) ...
Presolve removed 13461 rows and 23974 columns
Presolve time: 13.57s
Presolved: 181270 rows, 1124943 columns, 3261573 nonzeros
Variable types: 1079804 continuous, 45139 integer (45138 binary)
Deterministic concurrent LP optimizer: primal simplex, dual simplex, and barrier
Showing barrier log only...

Root barrier log...

Elapsed ordering time = 5s
Elapsed ordering time = 10s
Elapsed ordering time = 15s
Elapsed ordering time = 20s
Elapsed ordering time = 25s
Ordering time: 28.54s

Barrier statistics:
 AA' NZ     : 3.071e+06
 Factor NZ  : 7.099e+07 (roughly 1.0 GB of memory)
 Factor Ops : 1.074e+11 (roughly 2 seconds per iteration)
 Threads    : 2

                  Objective                Residual
Iter       Primal          Dual         Primal    Dual     Compl     Time
   0   2.33549244e+14 -5.32332654e+14  3.34e+08 2.40e+04  2.38e+12    51s
   1   4.57554518e+13 -1.83366019e+14  5.89e+07 1.14e+05  4.24e+11    54s
   2   7.49290054e+12 -5.12050491e+13  9.55e+06 2.78e+03  6.91e+10    56s
   3   1.02884151e+12 -2.06097659e+13  1.30e+06 1.50e-08  9.46e+09    60s
   4   2.09659718e+11 -1.14080494e+13  2.62e+05 2.53e-08  1.95e+09    63s
   5   2.33993185e+10 -7.50896805e+12  2.90e+04 1.72e-08  2.24e+08    66s
   6   1.89897017e+09 -5.80158788e+12  2.14e+03 2.51e-08  1.87e+07    70s
   7   4.42691353e+08 -3.26558832e+12  2.79e+02 3.54e-08  3.34e+06    74s
   8   2.34092820e+08 -1.52241067e+12  7.11e+01 1.96e-08  1.06e+06    79s
   9   1.94953983e+08 -9.12332552e+11  4.11e+01 4.28e-08  6.01e+05    82s
  10   1.53229033e+08 -5.62782794e+11  1.69e+01 1.40e-07  3.29e+05    86s
  11   1.32684740e+08 -3.24029934e+11  9.01e+00 8.01e-08  1.86e+05    90s
  12   1.19343765e+08 -1.32727237e+11  3.37e+00 2.18e-07  7.40e+04    93s
  13   1.00642132e+08 -4.59551229e+10  8.07e-01 6.61e-08  2.39e+04    96s
  14   8.29384439e+07 -1.98525752e+10  2.42e-01 1.64e-07  9.96e+03    99s
  15   7.54285065e+07 -1.12044941e+10  1.13e-01 1.16e-07  5.56e+03   102s
  16   7.05196654e+07 -6.03097349e+09  5.78e-02 1.12e-07  3.01e+03   105s
  17   6.29026150e+07 -2.47335874e+09  1.93e-02 1.02e-07  1.24e+03   108s
  18   5.54464077e+07 -1.37204470e+09  7.47e-03 9.56e-08  6.83e+02   111s
  19   4.95445458e+07 -4.86475568e+08  3.42e-03 1.05e-07  2.64e+02   114s
  20   4.50215650e+07 -2.86891876e+08  2.19e-03 1.15e-07  1.64e+02   117s
  21   4.14230010e+07 -1.57582766e+08  1.42e-03 9.46e-08  9.99e+01   121s
  22   3.66949076e+07 -4.74575323e+07  7.89e-04 8.91e-08  4.41e+01   125s
  23   3.29392406e+07 -6.65454165e+06  4.40e-04 7.97e-08  2.15e+01   129s
  24   3.03793562e+07  7.53270564e+06  2.03e-04 1.21e-07  1.20e+01   133s
  25   2.90625766e+07  1.22866342e+07  1.05e-04 2.02e-07  8.42e+00   136s
  26   2.83038950e+07  1.52892119e+07  5.73e-05 6.26e-07  6.31e+00   140s
  27   2.77711972e+07  2.11830771e+07  3.24e-05 5.59e-07  3.24e+00   143s
  28   2.75827208e+07  2.21709561e+07  2.56e-05 6.56e-07  2.66e+00   146s
  29   2.73260202e+07  2.34567592e+07  1.66e-05 7.15e-07  1.89e+00   149s
  30   2.70995506e+07  2.40749755e+07  9.48e-06 7.46e-07  1.44e+00   153s
  31   2.70231511e+07  2.47548949e+07  7.33e-06 9.81e-07  1.09e+00   156s
  32   2.69790620e+07  2.49674534e+07  6.15e-06 8.62e-07  9.60e-01   160s
  33   2.69246666e+07  2.53981018e+07  4.75e-06 1.15e-06  7.30e-01   164s
  34   2.68059390e+07  2.57775537e+07  2.08e-06 9.54e-07  4.77e-01   168s
  35   2.67962260e+07  2.59488161e+07  1.89e-06 1.04e-06  3.95e-01   172s
  36   2.67691467e+07  2.62944968e+07  1.19e-06 8.42e-07  2.23e-01   177s
  37   2.67505477e+07  2.64606169e+07  1.34e-06 7.86e-07  1.36e-01   181s
  38   2.67369976e+07  2.65765056e+07  1.35e-06 7.39e-07  7.59e-02   185s
  39   2.67305497e+07  2.66303873e+07  1.79e-06 7.05e-07  4.76e-02   189s
  40   2.67225786e+07  2.66829214e+07  1.95e-06 6.93e-07  1.88e-02   194s
  41   2.67202833e+07  2.67154974e+07  3.92e-06 1.39e-06  2.79e-03   199s
  42   2.67186198e+07  2.67178832e+07  6.12e-07 7.68e-07  4.22e-04   204s
  43   2.67184083e+07  2.67183642e+07  6.17e-08 9.40e-07  3.35e-05   208s
  44   2.67183794e+07  2.67183766e+07  1.56e-07 2.40e-05  2.14e-06   212s
  45   2.67183787e+07  2.67183775e+07  3.92e-06 4.66e-04  1.14e-06   217s

Barrier solved model in 45 iterations and 216.58 seconds (205.21 work units)
Optimal objective 2.67183787e+07


Root crossover log...

  166167 DPushes remaining with DInf 0.0000000e+00               217s
    2597 DPushes remaining with DInf 1.3438472e-05               222s

    7366 PPushes remaining with PInf 2.7037253e-03               222s
       0 PPushes remaining with PInf 0.0000000e+00               223s

  Push phase complete: Pinf 0.0000000e+00, Dinf 2.6139718e-04    223s


Root simplex log...

Iteration    Objective       Primal Inf.    Dual Inf.      Time
  170926    2.6718378e+07   0.000000e+00   2.950816e-04    223s
  171667    2.6718378e+07   3.253184e+06   0.000000e+00    226s
  172447    2.6718378e+07   4.316809e+05   0.000000e+00    230s
  172597    2.6718378e+07   3.604291e+05   0.000000e+00    235s
  172707    2.6718378e+07   4.538310e+05   0.000000e+00    240s
  172947    2.6718378e+07   1.815189e+05   0.000000e+00    252s
  173067    2.6718378e+07   1.764929e+05   0.000000e+00    258s
  173207    2.6718378e+07   9.822087e+04   0.000000e+00    265s
  173317    2.6718378e+07   1.552626e+05   0.000000e+00    270s
  173457    2.6718378e+07   7.937475e+04   0.000000e+00    277s
  173557    2.6718378e+07   7.813103e+04   0.000000e+00    282s
  173657    2.6718378e+07   5.953390e+04   0.000000e+00    287s
  173757    2.6718378e+07   6.142963e+04   0.000000e+00    293s
  173857    2.6718378e+07   5.994961e+04   0.000000e+00    298s
  173977    2.6718378e+07   6.270604e+04   0.000000e+00    304s
  174117    2.6718378e+07   5.928600e+04   0.000000e+00    311s
  174217    2.6718378e+07   5.259415e+04   0.000000e+00    316s
  174327    2.6718378e+07   4.499487e+04   0.000000e+00    322s
  174467    2.6718378e+07   3.750103e+04   0.000000e+00    329s
  174577    2.6718378e+07   3.627268e+04   0.000000e+00    335s
  174677    2.6718378e+07   3.138415e+04   0.000000e+00    340s
  174817    2.6718378e+07   2.247534e+04   0.000000e+00    347s
  174917    2.6718378e+07   2.758716e+04   0.000000e+00    352s
  175037    2.6718378e+07   3.974999e+04   0.000000e+00    359s
  175177    2.6718378e+07   2.079311e+04   0.000000e+00    367s
  175277    2.6718378e+07   1.915908e+04   0.000000e+00    372s
  175377    2.6718378e+07   1.948570e+04   0.000000e+00    378s
  175507    2.6718378e+07   2.257022e+04   0.000000e+00    385s
  175637    2.6718378e+07   1.912155e+04   0.000000e+00    392s
  175737    2.6718378e+07   1.920515e+04   0.000000e+00    398s
  175837    2.6718378e+07   1.885921e+04   0.000000e+00    403s
  175937    2.6718378e+07   1.477313e+04   0.000000e+00    409s
  176077    2.6718378e+07   1.538025e+04   0.000000e+00    416s
  176217    2.6718378e+07   1.682461e+04   0.000000e+00    424s
  176347    2.6718378e+07   1.498565e+04   0.000000e+00    430s
  176447    2.6718378e+07   1.365992e+04   0.000000e+00    436s
  176587    2.6718378e+07   1.677698e+04   0.000000e+00    444s
  176687    2.6718378e+07   1.107462e+04   0.000000e+00    449s
  176807    2.6718378e+07   1.064083e+04   0.000000e+00    454s
  176947    2.6718378e+07   1.228910e+04   0.000000e+00    461s
  177047    2.6718378e+07   7.903063e+03   0.000000e+00    466s
  177147    2.6718378e+07   1.021779e+04   0.000000e+00    472s
  177247    2.6718378e+07   1.135302e+04   0.000000e+00    477s
  177357    2.6718378e+07   1.392426e+04   0.000000e+00    483s
  177457    2.6718378e+07   1.017991e+04   0.000000e+00    488s
  177567    2.6718378e+07   9.167774e+03   0.000000e+00    493s
  177667    2.6718378e+07   7.423766e+03   0.000000e+00    498s
  177797    2.6718378e+07   5.714625e+03   0.000000e+00    505s
  177897    2.6718378e+07   4.654498e+03   0.000000e+00    510s
  178027    2.6718378e+07   5.107259e+03   0.000000e+00    517s
  178127    2.6718378e+07   6.843219e+03   0.000000e+00    522s
  178267    2.6718378e+07   4.141479e+03   0.000000e+00    530s
  178377    2.6718378e+07   5.770004e+03   0.000000e+00    535s
  178487    2.6718378e+07   5.605902e+03   0.000000e+00    540s
  178627    2.6718378e+07   7.072771e+03   0.000000e+00    548s
  178727    2.6718378e+07   6.887385e+03   0.000000e+00    554s
  178827    2.6718378e+07   6.175581e+03   0.000000e+00    559s
  178927    2.6718378e+07   6.770415e+03   0.000000e+00    565s
  179027    2.6718378e+07   6.420308e+03   0.000000e+00    570s
  179127    2.6718378e+07   6.078454e+03   0.000000e+00    576s
  179227    2.6718378e+07   6.410105e+03   0.000000e+00    581s
  179327    2.6718378e+07   6.466747e+03   0.000000e+00    587s
  179427    2.6718378e+07   6.734800e+03   0.000000e+00    592s
  179567    2.6718378e+07   5.816584e+03   0.000000e+00    600s
  179697    2.6718378e+07   5.986918e+03   0.000000e+00    607s
  179797    2.6718378e+07   5.929797e+03   0.000000e+00    612s
  179897    2.6718378e+07   4.970678e+03   0.000000e+00    617s
  179997    2.6718378e+07   4.018501e+03   0.000000e+00    623s
  180097    2.6718379e+07   4.147935e+03   0.000000e+00    628s
  180197    2.6718379e+07   4.133206e+03   0.000000e+00    634s
  180297    2.6718379e+07   3.845631e+03   0.000000e+00    639s
  180397    2.6718379e+07   4.374886e+03   0.000000e+00    644s
  180507    2.6718379e+07   3.416607e+03   0.000000e+00    650s
  180607    2.6718379e+07   5.022394e+03   0.000000e+00    655s
  180737    2.6718379e+07   4.795288e+03   0.000000e+00    662s
  180867    2.6718379e+07   3.471704e+03   0.000000e+00    669s
  180967    2.6718379e+07   2.897880e+03   0.000000e+00    675s
  181067    2.6718379e+07   3.606762e+03   0.000000e+00    681s
  181197    2.6718379e+07   3.309692e+03   0.000000e+00    688s
  181297    2.6718379e+07   4.414602e+03   0.000000e+00    693s
  181437    2.6718379e+07   2.797725e+03   0.000000e+00    700s
  181537    2.6718379e+07   2.872932e+03   0.000000e+00    705s
  181637    2.6718379e+07   2.897511e+03   0.000000e+00    710s
  181747    2.6718379e+07   4.720565e+03   0.000000e+00    716s
  181867    2.6718379e+07   3.972704e+03   0.000000e+00    723s
  181967    2.6718379e+07   3.790581e+03   0.000000e+00    728s
  182067    2.6718379e+07   5.234517e+03   0.000000e+00    734s
  182167    2.6718379e+07   4.023020e+03   0.000000e+00    740s
  182267    2.6718379e+07   2.693603e+03   0.000000e+00    745s
  182367    2.6718379e+07   3.986914e+03   0.000000e+00    751s
  182467    2.6718379e+07   3.194716e+03   0.000000e+00    757s
  182567    2.6718379e+07   2.613166e+03   0.000000e+00    762s
  182667    2.6718379e+07   2.427363e+03   0.000000e+00    767s
  182787    2.6718379e+07   1.965420e+03   0.000000e+00    774s
  182887    2.6718379e+07   2.351099e+03   0.000000e+00    780s
  182987    2.6718379e+07   2.208339e+03   0.000000e+00    786s
  183107    2.6718379e+07   2.596575e+03   0.000000e+00    792s
  183217    2.6718379e+07   2.011785e+03   0.000000e+00    798s
  183317    2.6718379e+07   1.791460e+03   0.000000e+00    804s
  183447    2.6718379e+07   1.643036e+03   0.000000e+00    811s
  183587    2.6718379e+07   2.725501e+03   0.000000e+00    818s
  183737    2.6718379e+07   2.435015e+03   0.000000e+00    826s
  183877    2.6718379e+07   2.948698e+03   0.000000e+00    833s
  183977    2.6718379e+07   1.693943e+03   0.000000e+00    839s
  184077    2.6718379e+07   1.741352e+03   0.000000e+00    844s
  184207    2.6718379e+07   1.784276e+03   0.000000e+00    851s
  184307    2.6718379e+07   1.814310e+03   0.000000e+00    857s
  184407    2.6718380e+07   1.721479e+03   0.000000e+00    863s
  184507    2.6718380e+07   1.504829e+03   0.000000e+00    868s
  184607    2.6718380e+07   1.489211e+03   0.000000e+00    873s
  184747    2.6718380e+07   1.525811e+03   0.000000e+00    881s
  184867    2.6718380e+07   1.887090e+03   0.000000e+00    888s
  184967    2.6718380e+07   1.471210e+03   0.000000e+00    894s
  185067    2.6718380e+07   1.613335e+03   0.000000e+00    899s
  185207    2.6718380e+07   2.880000e+03   0.000000e+00    907s
  185327    2.6718380e+07   1.046023e+03   0.000000e+00    914s
  185427    2.6718380e+07   1.674222e+03   0.000000e+00    919s
  185527    2.6718380e+07   1.326694e+03   0.000000e+00    925s
  185627    2.6718380e+07   1.365928e+03   0.000000e+00    930s
  185727    2.6718380e+07   1.600279e+03   0.000000e+00    936s
  185867    2.6718380e+07   1.163510e+03   0.000000e+00    943s
  186007    2.6718380e+07   1.476335e+03   0.000000e+00    951s
  186107    2.6718380e+07   1.264899e+03   0.000000e+00    957s
  186217    2.6718380e+07   1.380328e+03   0.000000e+00    962s
  186317    2.6718380e+07   1.760816e+03   0.000000e+00    968s
  186457    2.6718380e+07   1.397454e+03   0.000000e+00    976s
  186557    2.6718380e+07   1.262307e+03   0.000000e+00    981s
  186677    2.6718380e+07   1.200356e+03   0.000000e+00    988s
  186807    2.6718380e+07   1.433466e+03   0.000000e+00    995s
  186937    2.6718380e+07   1.421987e+03   0.000000e+00   1002s
  187087    2.6718380e+07   1.255052e+03   0.000000e+00   1010s
  187227    2.6718380e+07   1.462985e+03   0.000000e+00   1018s
  187337    2.6718380e+07   1.276931e+03   0.000000e+00   1023s
  187447    2.6718380e+07   1.260108e+03   0.000000e+00   1029s
  187587    2.6718380e+07   1.447248e+03   0.000000e+00   1036s
  187687    2.6718380e+07   1.350544e+03   0.000000e+00   1042s
  187787    2.6718380e+07   1.309367e+03   0.000000e+00   1047s
  187887    2.6718380e+07   1.172509e+03   0.000000e+00   1053s
  187987    2.6718380e+07   1.107131e+03   0.000000e+00   1059s
  188127    2.6718380e+07   1.193029e+03   0.000000e+00   1066s
  188267    2.6718380e+07   2.120089e+03   0.000000e+00   1075s
  188397    2.6718380e+07   1.610218e+03   0.000000e+00   1081s
  188517    2.6718380e+07   1.450350e+03   0.000000e+00   1087s
  188617    2.6718380e+07   2.079256e+03   0.000000e+00   1092s
  188717    2.6718380e+07   1.193049e+03   0.000000e+00   1097s
  188817    2.6718380e+07   1.741048e+03   0.000000e+00   1103s
  188917    2.6718380e+07   2.395293e+03   0.000000e+00   1108s
  189037    2.6718380e+07   1.684196e+03   0.000000e+00   1113s
  189137    2.6718380e+07   2.062334e+03   0.000000e+00   1118s
  189237    2.6718380e+07   1.898682e+03   0.000000e+00   1123s
  189337    2.6718380e+07   1.685585e+03   0.000000e+00   1127s
  189477    2.6718380e+07   4.735604e+03   0.000000e+00   1135s
  189617    2.6718380e+07   1.457688e+03   0.000000e+00   1142s
  189757    2.6718380e+07   1.113171e+03   0.000000e+00   1148s
  189887    2.6718380e+07   4.597232e+02   0.000000e+00   1154s
  189987    2.6718380e+07   4.065713e+02   0.000000e+00   1159s
  190127    2.6718380e+07   3.922600e+02   0.000000e+00   1166s
  190227    2.6718380e+07   3.271094e+02   0.000000e+00   1171s
  190327    2.6718380e+07   3.675792e+02   0.000000e+00   1176s
  190427    2.6718380e+07   4.113264e+02   0.000000e+00   1181s
  190527    2.6718380e+07   3.138018e+02   0.000000e+00   1185s
  190627    2.6718380e+07   3.854414e+02   0.000000e+00   1190s
  190727    2.6718380e+07   4.167187e+02   0.000000e+00   1196s
  190867    2.6718380e+07   4.465716e+02   0.000000e+00   1204s
  190997    2.6718380e+07   4.297045e+02   0.000000e+00   1211s
  191137    2.6718380e+07   8.488560e+02   0.000000e+00   1218s
  191277    2.6718380e+07   6.456446e+02   0.000000e+00   1225s
  191397    2.6718380e+07   5.702180e+02   0.000000e+00   1233s
  191537    2.6718380e+07   4.647543e+02   0.000000e+00   1240s
  191637    2.6718380e+07   3.299553e+02   0.000000e+00   1245s
  191737    2.6718380e+07   3.421452e+02   0.000000e+00   1250s
  191837    2.6718380e+07   3.592881e+02   0.000000e+00   1256s
  191937    2.6718380e+07   5.261614e+02   0.000000e+00   1262s
  192037    2.6718380e+07   4.455478e+02   0.000000e+00   1268s
  192137    2.6718380e+07   3.549449e+02   0.000000e+00   1274s
  192237    2.6718380e+07   5.679615e+02   0.000000e+00   1279s
  192377    2.6718380e+07   5.225612e+02   0.000000e+00   1287s
  192517    2.6718380e+07   4.130831e+02   0.000000e+00   1296s
  192617    2.6718380e+07   4.304367e+02   0.000000e+00   1302s
  192717    2.6718380e+07   7.820032e+02   0.000000e+00   1307s
  192817    2.6718380e+07   5.126110e+02   0.000000e+00   1313s
  192917    2.6718380e+07   5.196291e+02   0.000000e+00   1318s
  193017    2.6718380e+07   6.247648e+02   0.000000e+00   1324s
  193117    2.6718381e+07   2.288603e+02   0.000000e+00   1328s
  193217    2.6718381e+07   2.291401e+02   0.000000e+00   1333s
  193317    2.6718381e+07   2.628948e+02   0.000000e+00   1339s
  193457    2.6718381e+07   2.655173e+02   0.000000e+00   1347s
  193587    2.6718381e+07   4.242812e+02   0.000000e+00   1355s
  193707    2.6718381e+07   4.031493e+02   0.000000e+00   1362s
  193807    2.6718381e+07   1.836360e+02   0.000000e+00   1369s
  193947    2.6718381e+07   5.626565e+02   0.000000e+00   1377s
  194067    2.6718381e+07   2.579932e+02   0.000000e+00   1383s
  194197    2.6718381e+07   2.543559e+02   0.000000e+00   1390s
  194317    2.6718381e+07   2.329656e+02   0.000000e+00   1396s
  194437    2.6718381e+07   1.639735e+02   0.000000e+00   1402s
  194537    2.6718381e+07   2.183071e+02   0.000000e+00   1407s
  194667    2.6718381e+07   2.295092e+02   0.000000e+00   1413s
  194807    2.6718381e+07   2.948818e+02   0.000000e+00   1421s
  194927    2.6718381e+07   1.874926e+02   0.000000e+00   1428s
  195047    2.6718381e+07   1.318162e+02   0.000000e+00   1436s
  195187    2.6718381e+07   1.239880e+02   0.000000e+00   1444s
  195317    2.6718381e+07   1.761448e+02   0.000000e+00   1452s
  195437    2.6718381e+07   2.320242e+02   0.000000e+00   1458s
  195557    2.6718381e+07   2.189086e+02   0.000000e+00   1464s
  195677    2.6718381e+07   8.810389e+01   0.000000e+00   1470s
  195797    2.6718381e+07   1.601123e+02   0.000000e+00   1476s
  195937    2.6718381e+07   1.003171e+02   0.000000e+00   1483s
  196077    2.6718381e+07   1.104232e+02   0.000000e+00   1492s
  196197    2.6718381e+07   1.600249e+02   0.000000e+00   1499s
  196317    2.6718381e+07   1.320840e+02   0.000000e+00   1507s
  196437    2.6718381e+07   4.601033e+01   0.000000e+00   1514s
  196557    2.6718381e+07   5.786930e+01   0.000000e+00   1521s
  196677    2.6718381e+07   3.396780e+01   0.000000e+00   1529s
  196807    2.6718381e+07   2.855301e+01   0.000000e+00   1537s
  196927    2.6718381e+07   3.011722e+01   0.000000e+00   1543s
  197047    2.6718381e+07   2.078208e+01   0.000000e+00   1550s
  197167    2.6718381e+07   1.524949e+01   0.000000e+00   1556s
  197297    2.6718381e+07   3.663038e+01   0.000000e+00   1563s
  197427    2.6718381e+07   3.746325e+01   0.000000e+00   1570s
  197547    2.6718381e+07   4.670435e+01   0.000000e+00   1577s
  197667    2.6718381e+07   2.853250e+01   0.000000e+00   1585s
  197787    2.6718381e+07   2.137530e+01   0.000000e+00   1593s
  197917    2.6718381e+07   2.691079e+00   0.000000e+00   1601s
  197966    2.6718378e+07   0.000000e+00   0.000000e+00   1604s
Waiting for other threads to finish...        1668s
Waiting for other threads to finish...        1732s
Waiting for other threads to finish...        1795s
Concurrent spin time: 216.79s (can be avoided by choosing Method=3)

Solved with barrier
  198275    2.6718378e+07   0.000000e+00   0.000000e+00   1825s
Extra simplex iterations after uncrush: 309

Root relaxation: objective 2.671838e+07, 198275 iterations, 1811.02 seconds (1050.76 work units)

    Nodes    |    Current Node    |     Objective Bounds      |     Work
 Expl Unexpl |  Obj  Depth IntInf | Incumbent    BestBd   Gap | It/Node Time

     0     0 2.6718e+07    0 4308 3.3757e+07 2.6718e+07  20.8%     - 1830s
     0     0 2.6718e+07    0 4377 3.3757e+07 2.6718e+07  20.8%     - 2909s
     0     0 2.7666e+07    0 4465 3.3757e+07 2.7666e+07  18.0%     - 8239s
     0     0 2.7666e+07    0 4095 3.3757e+07 2.7666e+07  18.0%     - 9393s
     0     0 2.7666e+07    0 3804 3.3757e+07 2.7666e+07  18.0%     - 9902s
     0     0 2.7694e+07    0 3695 3.3757e+07 2.7694e+07  18.0%     - 15388s
     0     0 2.7694e+07    0 3911 3.3757e+07 2.7694e+07  18.0%     - 15664s
     0     0 2.7727e+07    0 3695 3.3757e+07 2.7727e+07  17.9%     - 17804s
     0     0 2.7727e+07    0 3851 3.3757e+07 2.7727e+07  17.9%     - 17998s
     0     0 2.7732e+07    0 3655 3.3757e+07 2.7732e+07  17.8%     - 19355s
     0     0 2.7732e+07    0 3824 3.3757e+07 2.7732e+07  17.8%     - 19499s
     0     0 2.7732e+07    0 3838 3.3757e+07 2.7732e+07  17.8%     - 20448s
     0     0 2.7732e+07    0 3873 3.3757e+07 2.7732e+07  17.8%     - 20574s
     0     0 2.8006e+07    0 4264 3.3757e+07 2.8006e+07  17.0%     - 38302s
     0     0 2.8006e+07    0 4035 3.3757e+07 2.8006e+07  17.0%     - 39079s
     0     0 2.8006e+07    0 4004 3.3757e+07 2.8006e+07  17.0%     - 39079s
     0     0 2.8006e+07    0 3851 3.3757e+07 2.8006e+07  17.0%     - 42291s
     0     0 2.8006e+07    0 3874 3.3757e+07 2.8006e+07  17.0%     - 42309s
     0     0 2.8006e+07    0 3921 3.3757e+07 2.8006e+07  17.0%     - 48696s
     0     0 2.8006e+07    0 3924 3.3757e+07 2.8006e+07  17.0%     - 48708s
     0     0 2.8006e+07    0 3891 3.3757e+07 2.8006e+07  17.0%     - 49614s
     0     0 2.8006e+07    0 3950 3.3757e+07 2.8006e+07  17.0%     - 49631s
     0     0 2.8014e+07    0 4012 3.3757e+07 2.8014e+07  17.0%     - 50410s
     0     0 2.8014e+07    0 4045 3.3757e+07 2.8014e+07  17.0%     - 50428s
     0     0 2.8015e+07    0 4061 3.3757e+07 2.8015e+07  17.0%     - 50872s
     0     0 2.8015e+07    0 4092 3.3757e+07 2.8015e+07  17.0%     - 50905s
     0     0 2.8015e+07    0 4030 3.3757e+07 2.8015e+07  17.0%     - 51419s
     0     0 2.8015e+07    0 4043 3.3757e+07 2.8015e+07  17.0%     - 51427s
     0     0 2.8016e+07    0 4061 3.3757e+07 2.8016e+07  17.0%     - 52258s
     0     0 2.8016e+07    0 4063 3.3757e+07 2.8016e+07  17.0%     - 52276s
     0     0 2.8016e+07    0 4038 3.3757e+07 2.8016e+07  17.0%     - 52511s
     0     0 2.8016e+07    0 4043 3.3757e+07 2.8016e+07  17.0%     - 52518s
     0     0 2.8016e+07    0 4027 3.3757e+07 2.8016e+07  17.0%     - 52529s
     0     0 2.8199e+07    0 4119 3.3757e+07 2.8199e+07  16.5%     - 56083s
     0     0 2.8199e+07    0 4160 3.3757e+07 2.8199e+07  16.5%     - 56087s
     0     0 2.8289e+07    0 4187 3.3757e+07 2.8289e+07  16.2%     - 62230s
     0     0 2.8289e+07    0 4224 3.3757e+07 2.8289e+07  16.2%     - 62239s
     0     0 2.8313e+07    0 4231 3.3757e+07 2.8313e+07  16.1%     - 65124s
     0     0 2.8313e+07    0 4206 3.3757e+07 2.8313e+07  16.1%     - 65138s
     0     0 2.8323e+07    0 4257 3.3757e+07 2.8323e+07  16.1%     - 66260s
     0     0 2.8323e+07    0 4251 3.3757e+07 2.8323e+07  16.1%     - 66546s
     0     0 2.8326e+07    0 4298 3.3757e+07 2.8326e+07  16.1%     - 70507s
     0     0 2.8326e+07    0 4327 3.3757e+07 2.8326e+07  16.1%     - 70541s
     0     0 2.8326e+07    0 4265 3.3757e+07 2.8326e+07  16.1%     - 71117s
     0     0 2.8326e+07    0 4281 3.3757e+07 2.8326e+07  16.1%     - 71146s
     0     0 2.8327e+07    0 4274 3.3757e+07 2.8327e+07  16.1%     - 71550s
     0     0 2.8327e+07    0 4277 3.3757e+07 2.8327e+07  16.1%     - 71975s
     0     0 2.8327e+07    0 4321 3.3757e+07 2.8327e+07  16.1%     - 72136s
     0     0 2.8327e+07    0 4280 3.3757e+07 2.8327e+07  16.1%     - 72150s
     0     0 2.8327e+07    0 4263 3.3757e+07 2.8327e+07  16.1%     - 72313s
     0     0 2.8327e+07    0 4259 3.3757e+07 2.8327e+07  16.1%     - 72838s
     0     0 2.8327e+07    0 4286 3.3757e+07 2.8327e+07  16.1%     - 73369s
     0     0 2.8327e+07    0 4284 3.3757e+07 2.8327e+07  16.1%     - 73641s
     0     0 2.8479e+07    0 4188 3.3757e+07 2.8479e+07  15.6%     - 76613s
     0     0 2.8479e+07    0 4179 3.3757e+07 2.8479e+07  15.6%     - 76900s
     0     0 2.8546e+07    0 4248 3.3757e+07 2.8546e+07  15.4%     - 80213s
     0     0 2.8546e+07    0 4195 3.3757e+07 2.8546e+07  15.4%     - 80493s
     0     0 2.8574e+07    0 4221 3.3757e+07 2.8574e+07  15.4%     - 82619s
     0     0 2.8574e+07    0 4255 3.3757e+07 2.8574e+07  15.4%     - 82644s
     0     0          -    0      3.3757e+07 2.8574e+07  15.4%     - 84949s

Cutting planes:
  Cover: 7
  Implied bound: 2015
  Clique: 3
  MIR: 464
  Flow cover: 2061
  Network: 2
  RLT: 326
  Relax-and-lift: 1852

Explored 1 nodes (3973783 simplex iterations) in 84949.83 seconds (67123.90 work units)
Thread count was 4 (of 128 available processors)

Solution count 1: 3.37566e+07 

Time limit reached
Best objective 3.375659200000e+07, best bound 2.857416013028e+07, gap 15.3524%

Solving took 	23:35:49.863
####################################################################################################
####################################################################################################
####################################################################################################
Reached timelimit, but could find a feasible solution
####################################################################################################
Description                          Value
----------------------------  ------------
Objective (min)               33,756,592.0
Cost sailing                  18,578,958.0
Cost port visits              12,100,918.0
Cost transshipment (demands)   1,298,652.0
Cost transshipment (empties)     241,871.0
Penalty delayed demands        4,300,721.0
Revenue Empties                3,421,928.0
Penalty rejected demands         657,400.0
Rejected demands (%)                  0.08
Omitted ports (%)                      0.0
Gap (%)                              15.35
####################################################################################################
Export solution
####################################################################################################
Overall time 	23:36:17.859

real	1416m19.328s
user	1476m20.816s
sys	0m43.566s
finished at Sat Mar 18 08:26:28 CET 2023
